NAME : xqf131 3D
COMMENT : Bonn VLSI data set with 131 3D points
COMMENT : Uni Bonn, Research Institute for Discrete Math
COMMENT : Contributed by Andre Rohe
TYPE : OP
DIMENSION : 131
EDGE_WEIGHT_TYPE : EUC_3D
NODE_COORD_TYPE: THREED_COORDS
NODE_COORD_SECTION
1 0 13 0
2 0 26 15
3 0 27 2
4 0 39 56
5 2 0 0
6 5 13 8
7 5 19 25
8 5 25 7
9 5 31 98
10 5 37 14
11 5 43 1
12 5 8 1
13 8 0 45
14 9 10 7
15 10 10 5 
16 11 10 41
17 12 10 87
18 12 5 45
19 15 13 7
20 15 19 12
21 15 25 0
22 15 31 0
23 15 37 0
24 15 43 0
25 15 8 0
26 18 11 0
27 18 13 1
28 18 15 4
29 18 17 4
30 18 19 7
31 18 21 86
32 18 23 78
33 18 25 65
34 18 27 23
35 18 29 78
36 18 31 49
37 18 33 49
38 18 35 0
39 18 37 47
40 18 39 12
41 18 41 78
42 18 42 23
43 18 44 5
44 18 45 12
45 25 11 95
46 25 15 76
47 25 22 5
48 25 23 34
49 25 24 63
50 25 26 27
51 25 28 12
52 25 29 1
53 25 9 1
54 28 16 5
55 28 20 6
56 28 28 21
57 28 30 45
58 28 34 7
59 28 40 21
60 28 43 7
61 28 47 89
62 32 26 6
63 32 31 3
64 33 15 21
65 33 26 5
66 33 29 3
67 33 31 56
68 34 15 4
69 34 26 0
70 34 29 0
71 34 31 1
72 34 38 21
73 34 41 10
74 34 5 17
75 35 17 13
76 35 31 31
77 38 16 3
78 38 20 33
79 38 30 45
80 38 34 6
81 40 22 77
82 41 23 85
83 41 32 41
84 41 34 1
85 41 35 0
86 41 36 0
87 48 22 12
88 48 27 45
89 48 6 23
90 51 45 12
91 51 47 54
92 56 25 65
93 57 12 65
94 57 25 1
95 57 44 23
96 61 45 64
97 61 47 2
98 63 6 78
99 64 22 34
100 71 11 23
101 71 13 1
102 71 16 2
103 71 45 2
104 71 47 1
105 74 12 23
106 74 16 3
107 74 20 11
108 74 24 2
109 74 29 6
110 74 35 1
111 74 39 22
112 74 6 21
113 77 21 0
114 78 10 0
115 78 32 0
116 78 35 0
117 78 39 1
118 79 10 10
119 79 33 2
120 79 37 5
121 80 10 11
122 80 41 23
123 80 5 54
124 81 17 8
125 84 20 81
126 84 24 2
127 84 29 29
128 84 34 21
129 84 38 2
130 84 6 1
131 107 27 12

EOF
